100 10
31 28
27 36
28 36
54 63
20 27
49 50
27 20
85 88
24 23
93 100
84 83
99 100
63 55
5 1
69 76
91 94
74 78
84 79
72 65
5 12
20 17
14 7
79 85
83 88
52 42
17 20
21 30
8 10
72 64
8 1
82 86
90 86
68 64
41 32
89 86
52 59
15 14
28 36
66 64
31 41
67 74
98 89
69 74
29 33
59 54
53 63
85 76
86 88
74 67
69 66
73 79
99 100
47 52
67 75
43 35
31 40
72 70
91 82
61 68
34 44
100 92
64 59
75 77
54 57
40 40
79 85
62 60
36 37
17 15
37 31
96 100
37 38
48 50
43 52
6 1
77 75
63 58
56 49
86 93
26 25
46 50
13 14
9 11
35 42
44 36
72 70
76 67
46 47
29 23
46 45
99 90
81 75
98 90
78 68
57 65
52 55
98 96
2 1
82 90
47 38
410 476
473 543
663 786
547 663
633 741
469 559
649 783
727 827
534 601
493 558
